PARAMETER_FILE = even/even_uncomplete_graph_new/nei/par/random114.par
PROBLEM_FILE = even/even_uncomplete_graph_new/nei/mat/random114.tsp
Successes/Runs = 0/10
Cost.min = 805, Cost.avg = 805.00, Cost.max = 805
Gap.min = 0.0000%, Gap.avg = 0.0000%, Gap.max = 0.0000%
Trials.min = 1000, Trials.avg = 1000.0, Trials.max = 1000
Time.min = 0.20 sec., Time.avg = 0.43 sec., Time.max = 0.57 sec.
Time.total = 4.37 sec.
